objective value:                                   -4
t_n_3                                               1 	(obj:-1)
t_n_17                                              1 	(obj:-1)
t_n_1310                                            1 	(obj:-1)
t_n_1354                                            1 	(obj:-1)
